c WARNING: for repeatability, setting FPU to use double precision
d VARIABLES            135320       
d CONSTRAINTS          492884       
c ============================[ Problem Statistics ]=============================
c |                                                                             |
c |  Number of variables:        135320                                         |
c |  Number of clauses:          492884                                         |
c |  Parse time:                   0.08 s                                       |
c |                                                                             |
c ============================[ Search Statistics ]==============================
c | Conflicts |          ORIGINAL         |          LEARNT          | Progress |
c |           |    Vars  Clauses Literals |    Limit  Clauses Lit/Cl |          |
c ===============================================================================
c |       100 |  107552   421846  1058435 |   154676      100     60 | 20.520 % |
c |       250 |  107552   421846  1058435 |   170144      250     43 | 20.520 % |
c |       475 |  107552   421846  1058435 |   187159      475     29 | 20.520 % |
c |       812 |  107552   421846  1058435 |   205874      812     24 | 20.520 % |
c |      1318 |  107552   421846  1058435 |   226462     1318    124 | 20.520 % |
c |      2077 |  107552   421846  1058435 |   249108     2077     89 | 20.520 % |
c |      3216 |  107552   421846  1058435 |   274019     3216     63 | 20.520 % |
c |      4924 |  107551   421842  1058425 |   301421     4923     50 | 20.521 % |
c |      7486 |  107551   421842  1058425 |   331563     7485     68 | 20.521 % |
c |     11330 |  107551   421842  1058425 |   364719    11329     78 | 20.521 % |
c |     17096 |  107551   421842  1058425 |   401191    17095     91 | 20.521 % |
c |     25745 |  107551   421842  1058425 |   441311    25744     87 | 20.521 % |
c |     38719 |  107551   421842  1058425 |   485442    38718    123 | 20.521 % |
c |     58180 |  107551   421842  1058425 |   533986    58179    135 | 20.521 % |
c |     87372 |  107551   421842  1058425 |   587385    87371    154 | 20.521 % |
c |    131161 |  107551   421842  1058425 |   646123   131160    184 | 20.521 % |
c |    196845 |  107551   421842  1058425 |   710736   196844    188 | 20.521 % |
c |    295371 |  107551   421842  1058425 |   781809   295370    188 | 20.521 % |
c |    443160 |  107551   421842  1058425 |   859990   443159    205 | 20.521 % |
c |    664843 |  107551   421842  1058425 |   945989   664842    219 | 20.521 % |
c |    997368 |  107551   421842  1058425 |  1040588    54533    138 | 20.521 % |
c |   1496156 |  107551   421842  1058425 |  1144647   553321    262 | 20.521 % |
c ===============================================================================
c restarts              : 4094
c conflicts             : 2228468        (1251 /sec)
c decisions             : 6760280        (0.00 % random) (3796 /sec)
c propagations          : 4641392440     (2605879 /sec)
c conflict literals     : 541173558      (36.70 % deleted)
d RESTARTS             4094
d FAILURES             2228468      
d NODES                6760280      
d BACKTRACKS           6760280      
d PROPAGATIONS         4641392440   
d NOGOODSIZE           242.85 
d MEMORY               1637.00 
d TIME                 1781.12 

s UNKNOWN
